8 8
456 654 852 145 632 425 214 654
789 123 369 678 581 396 123 789       
654 123 632 965 475 325 456 654
321 456 581 421 32  147 789 123         
456 789 472 365 536 852 654 123
789 654 586 824 325 12  321 456        
654 321 320 758 863 452 456 789
789 147 120 639 21  863 789 654


